6 16 7 9 15 14 18 3 17 13 1 19 0 2 12 4 8 5 10 11  
6 7 16 9 15 14 3 17 18 13 1 0 19 2 8 12 4 5 10 11  
6 9 19 7 16 0 3 2 14 18 17 1 15 13 12 4 8 5 10 11  
6 9 19 7 16 0 2 3 15 14 18 17 13 8 1 4 12 5 10 11  
9 6 19 7 3 16 2 14 18 17 1 0 15 13 4 12 8 5 10 11  
6 9 19 7 16 13 2 3 15 18 14 17 1 0 8 12 4 5 10 11  
6 7 16 9 15 14 3 17 18 13 1 19 0 2 8 4 12 5 10 11  
6 7 16 9 15 14 3 17 18 13 1 19 0 2 12 4 8 5 10 11  
6 9 19 3 7 16 2 14 18 17 1 0 15 13 12 4 8 5 10 11  
6 9 19 18 16 0 2 3 14 7 15 17 1 13 4 12 8 5 10 11  
6 9 19 7 16 0 3 2 14 18 17 1 15 13 12 4 8 5 10 11  
6 9 19 7 3 16 2 14 18 17 1 0 15 13 12 4 8 5 10 11  
6 9 19 18 16 0 2 3 14 7 15 17 1 12 4 13 8 5 10 11  
6 9 19 16 7 17 1 2 3 14 18 15 13 0 8 4 12 5 10 11  
9 3 19 7 6 16 2 14 18 17 1 0 15 13 4 12 8 5 10 11  
9 6 19 7 16 1 2 3 14 18 17 13 0 4 15 12 8 5 10 11  
6 9 19 18 16 0 2 3 14 7 15 17 1 13 4 12 8 5 10 11  
9 6 19 7 16 1 3 2 14 18 17 13 0 4 15 12 8 5 10 11  
6 9 19 7 16 0 3 2 14 18 17 1 15 13 12 4 8 5 10 11  
6 9 19 16 7 14 3 17 18 2 13 1 0 15 12 4 8 5 10 11  
9 6 19 7 16 14 3 1 2 18 17 13 4 0 15 12 8 5 10 11  
6 9 16 7 15 14 3 17 18 13 1 2 19 0 8 4 12 5 10 11  
9 6 19 7 17 16 1 3 2 14 18 15 13 0 8 4 12 5 10 11  
6 9 19 7 16 14 3 18 2 17 1 0 15 13 4 12 8 5 10 11  
6 9 19 16 7 14 18 17 3 13 1 0 2 12 4 15 8 5 10 11  
6 9 19 18 16 0 2 3 14 7 15 17 1 12 4 13 8 5 10 11  
6 7 16 9 15 14 3 17 18 13 2 19 1 0 8 4 12 5 10 11  
9 6 19 7 16 0 2 3 15 14 18 17 1 13 12 4 8 5 10 11  
6 9 16 19 7 15 14 18 17 3 13 0 2 1 8 4 12 5 10 11  
6 9 19 18 16 14 3 7 2 17 1 15 13 8 0 4 12 5 10 11  
6 9 19 18 16 3 14 7 12 17 1 0 15 13 4 2 8 5 10 11  
6 9 19 3 16 14 18 7 2 17 1 15 13 8 0 4 12 5 10 11  
6 16 9 17 1 3 7 2 14 18 15 19 13 0 8 4 10 12 5 11  
6 9 16 19 7 15 14 18 17 3 13 8 2 1 0 4 12 5 10 11  
6 9 17 7 19 16 1 3 2 18 14 15 13 0 8 4 12 5 10 11  
6 9 19 7 3 16 2 14 18 17 1 0 15 13 12 4 8 5 10 11  
9 6 19 16 7 3 2 14 17 18 1 15 13 0 8 4 12 5 10 11  
6 9 3 16 18 2 14 7 17 1 15 13 19 8 0 4 12 5 10 11  
6 9 19 7 16 14 3 18 2 17 1 15 13 0 8 12 4 5 10 11  
